 &CONTROL
   calculation     =  'bands',
   outdir          =  '/scratch/groups/saraswat/aravind2/qe',
   prefix          =  'silicon',
   pseudo_dir      =  '/home/groups/saraswat/qe-6.5/pseudo',
 /

 &SYSTEM
   celldm(1)       =  10.3,
   ecutwfc         =  32,
   ibrav           =  2,
   nat             =  2,
   nbnd            =  8,
   ntyp            =  1,
 /

 &ELECTRONS
 /

ATOMIC_SPECIES 
  Si    28.086   Si.pz-vbc.UPF 


ATOMIC_POSITIONS alat
  Si       0.000000000000   0.000000000000   0.000000000000
  Si       0.250000000000   0.250000000000   0.250000000000

K_POINTS crystal_b
  39 
   0.5    0.5    0.5    1.0 
   0.45    0.45    0.45    1.0 
   0.4    0.4    0.4    1.0 
   0.35    0.35    0.35    1.0 
   0.3    0.3    0.3    1.0 
   0.25    0.25    0.25    1.0 
   0.2    0.2    0.2    1.0 
   0.15    0.15    0.15    1.0 
   0.1    0.1    0.1    1.0 
   0.05    0.05    0.05    1.0 
   0.0    0.0    0.0    1.0 
   0.0454545455    0.0454545455    0.0    1.0 
   0.0909090909    0.0909090909    0.0    1.0 
   0.1363636364    0.1363636364    0.0    1.0 
   0.1818181818    0.1818181818    0.0    1.0 
   0.2272727273    0.2272727273    0.0    1.0 
   0.2727272727    0.2727272727    0.0    1.0 
   0.3181818182    0.3181818182    0.0    1.0 
   0.3636363636    0.3636363636    0.0    1.0 
   0.4090909091    0.4090909091    0.0    1.0 
   0.4545454545    0.4545454545    0.0    1.0 
   0.5    0.5    0.0    1.0 
   0.5    0.5416666667    0.0416666667    1.0 
   0.5    0.5833333333    0.0833333333    1.0 
   0.5    0.625    0.125    1.0 
   0.5    0.6666666667    0.1666666667    1.0 
   0.5    0.7083333333    0.2083333333    1.0 
   0.5    0.75    0.25    1.0 
   0.46875    0.75    0.28125    1.0 
   0.4375    0.75    0.3125    1.0 
   0.40625    0.75    0.34375    1.0 
   0.375    0.75    0.375    1.0 
   0.3928571429    0.7142857143    0.3928571429    1.0 
   0.4107142857    0.6785714286    0.4107142857    1.0 
   0.4285714286    0.6428571429    0.4285714286    1.0 
   0.4464285714    0.6071428571    0.4464285714    1.0 
   0.4642857143    0.5714285714    0.4642857143    1.0 
   0.4821428571    0.5357142857    0.4821428571    1.0 
   0.5    0.5    0.5    1.0 



