&CONTROL    
    calculation = 'scf'
    restart_mode='from_scratch',
    pseudo_dir = './',
    outdir='./out',
    prefix='Na2'
/
&SYSTEM
    ibrav = 1,
    celldm(1) = 20.0,
    nat  = 2,
    ntyp = 1,
    ecutwfc = 20.0
/  
&ELECTRONS
    diagonalization='david'
    mixing_mode = 'plain',
    mixing_beta = 0.7,
    conv_thr =  1.0d-8
/
ATOMIC_SPECIES
Na  22.9897   Na.pz-n-vbc.UPF
ATOMIC_POSITIONS {bohr}
Na    15.33371   12.50000   12.50000
Na     9.666289  12.50000   12.50000  
K_POINTS {gamma}

