 &CONTROL
   calculation     =  'bands',
   outdir          =  '/temp/matic/pw/Si',
   pseudo_dir      =  '/home/matic/pw/pseudo',
 /

 &SYSTEM
   celldm(1)       =  10.0,
   ecutwfc         =  20.0,
   ibrav           =  2,
   nat             =  2,
   nbnd            =  8,
   ntyp            =  1,
 /

 &ELECTRONS
   conv_thr        =  1d-9,
 /

ATOMIC_SPECIES 
  Si    28.086   Si.pz-vbc.UPF 


ATOMIC_POSITIONS crystal
  Si       0.000000000000   0.000000000000   0.000000000000
  Si       0.250000000000   0.250000000000   0.250000000000

K_POINTS tpiba
  36 
   0.5    0.5    0.5   1 
   0.4    0.4    0.4   2 
   0.3    0.3    0.3   3 
   0.2    0.2    0.2   4 
   0.1    0.1    0.1   5 
   0.0    0.0    0.0   6 
   0.0    0.0    0.1   7 
   0.0    0.0    0.2   8 
   0.0    0.0    0.3   9 
   0.0    0.0    0.4   10 
   0.0    0.0    0.5   11 
   0.0    0.0    0.6   12 
   0.0    0.0    0.7   13 
   0.0    0.0    0.8   14 
   0.0    0.0    0.9   15 
   0.0    0.0    1.0   16 
   0.0    0.1    1.0   17 
   0.0    0.2    1.0   18 
   0.0    0.3    1.0   19 
   0.0    0.4    1.0   20 
   0.0    0.5    1.0   21 
   0.0    0.6    1.0   22 
   0.0    0.7    1.0   23 
   0.0    0.8    1.0   24 
   0.0    0.9    1.0   25 
   0.0    1.0    1.0   26 
   0.0    0.9    0.9   27 
   0.0    0.8    0.8   28 
   0.0    0.7    0.7   29 
   0.0    0.6    0.6   30 
   0.0    0.5    0.5   31 
   0.0    0.4    0.4   32 
   0.0    0.3    0.3   33 
   0.0    0.2    0.2   34 
   0.0    0.1    0.1   35 
   0.0    0.0    0.0   36 



