 &bands
    outdir='/temp/matic/pw/Si'
    filband = 'sibands.dat'
    lsym=.true.
 /
