 &BANDS
    prefix  = 'Graphene_1x1_PBE'
    outdir  = '/tmp/'
    filband = 'bands.dat'
    lsym = .true.,
 /
