 &CONTROL
   calculation     =  'scf',
   outdir          =  '/temp/matic/pw/Fe-fm',
   pseudo_dir      =  '/net/terrace/home/matic/pw/pseudo',
 /

 &SYSTEM
   celldm(1)       =  5.42,
   degauss         =  0.01,
   ecutwfc         =  25.0,
   ibrav           =  3,
   nat             =  1,
   nspin           =  2,
   ntyp            =  1,
   occupations     =  'smearing',
   smearing        =  'm-v',
   starting_magnetization(1) =  0.5,
 /

 &ELECTRONS
   conv_thr        =  1d-9,
 /

ATOMIC_SPECIES 
  Fe    55.847   Fe.pbe-nd-rrkjus.UPF 


ATOMIC_POSITIONS crystal
  Fe       0.000000000000   0.000000000000   0.000000000000

K_POINTS automatic
  8   8   8   1   1   1 



